p cnf 261 1321
113 128 258 0
80 94 100 157 0
115 175 177 0
87 102 122 155 0
68 77 101 121 0
62 64 65 118 0
74 98 232 0
21 47 60 0
19 109 116 132 148 152 0
90 97 0
79 138 182 0
66 111 146 151 184 186 189 0
106 126 0
159 192 0
83 130 133 0
10 142 163 166 0
56 57 161 167 0
50 53 59 71 72 0
40 43 44 45 88 0
38 39 135 0
139 143 147 0
36 37 104 112 124 150 0
32 33 34 35 0
24 26 29 30 0
20 22 46 52 55 0
127 129 0
18 42 108 0
17 78 96 99 0
16 92 145 0
110 123 0
13 14 15 81 120 0
11 141 0
8 9 23 27 164 0
3 5 7 63 0
85 162 168 0
58 73 169 0
170 172 0
41 136 0
95 137 140 174 0
91 176 178 179 0
69 86 0
25 181 0
49 75 0
117 144 149 0
183 185 187 190 0
12 84 191 193 0
165 195 0
-98 -196 0
-21 -196 0
-116 -196 0
-79 -196 0
-184 -196 0
-21 -98 0
-98 -116 0
-79 -98 0
-98 -184 0
-21 -116 0
-21 -79 0
-21 -184 0
-79 -116 0
-116 -184 0
-79 -184 0
-39 -72 0
-72 -139 0
-72 -150 0
-72 -198 0
-35 -72 0
-39 -139 0
-39 -150 0
-39 -198 0
-35 -39 0
-139 -150 0
-139 -198 0
-35 -139 0
-150 -198 0
-35 -150 0
-35 -198 0
-200 -201 0
-200 -202 0
-55 -200 0
-108 -200 0
-96 -200 0
-201 -202 0
-55 -201 0
-108 -201 0
-96 -201 0
-55 -202 0
-108 -202 0
-96 -202 0
-55 -108 0
-55 -96 0
-96 -108 0
-92 -203 0
-92 -204 0
-15 -92 0
-9 -92 0
-7 -92 0
-203 -204 0
-15 -203 0
-9 -203 0
-7 -203 0
-15 -204 0
-9 -204 0
-7 -204 0
-9 -15 0
-7 -15 0
-7 -9 0
-91 -103 0
-91 -181 0
-91 -206 0
-75 -91 0
-91 -207 0
-103 -181 0
-103 -206 0
-75 -103 0
-103 -207 0
-181 -206 0
-75 -181 0
-181 -207 0
-75 -206 0
-206 -207 0
-75 -207 0
-134 -153 0
-134 -208 0
-134 -183 0
-84 -134 0
-134 -195 0
-153 -208 0
-153 -183 0
-84 -153 0
-153 -195 0
-183 -208 0
-84 -208 0
-195 -208 0
-84 -183 0
-183 -195 0
-84 -195 0
-72 -196 0
-196 -200 0
-92 -196 0
-91 -196 0
-134 -196 0
-72 -200 0
-72 -92 0
-72 -91 0
-72 -134 0
-92 -200 0
-91 -200 0
-134 -200 0
-91 -92 0
-92 -134 0
-91 -134 0
-39 -98 0
-98 -201 0
-98 -203 0
-98 -103 0
-98 -153 0
-39 -201 0
-39 -203 0
-39 -103 0
-39 -153 0
-201 -203 0
-103 -201 0
-153 -201 0
-103 -203 0
-153 -203 0
-103 -153 0
-21 -139 0
-21 -202 0
-21 -204 0
-21 -181 0
-21 -208 0
-139 -202 0
-139 -204 0
-139 -181 0
-139 -208 0
-202 -204 0
-181 -202 0
-202 -208 0
-181 -204 0
-204 -208 0
-181 -208 0
-116 -150 0
-55 -116 0
-15 -116 0
-116 -206 0
-116 -183 0
-55 -150 0
-15 -150 0
-150 -206 0
-150 -183 0
-15 -55 0
-55 -206 0
-55 -183 0
-15 -206 0
-15 -183 0
-183 -206 0
-79 -198 0
-79 -108 0
-9 -79 0
-75 -79 0
-79 -84 0
-108 -198 0
-9 -198 0
-75 -198 0
-84 -198 0
-9 -108 0
-75 -108 0
-84 -108 0
-9 -75 0
-9 -84 0
-75 -84 0
-35 -184 0
-96 -184 0
-7 -184 0
-184 -207 0
-184 -195 0
-35 -96 0
-7 -35 0
-35 -207 0
-35 -195 0
-7 -96 0
-96 -207 0
-96 -195 0
-7 -207 0
-7 -195 0
-195 -207 0
-130 -209 0
-142 -209 0
-28 -209 0
-4 -209 0
-130 -142 0
-28 -130 0
-4 -130 0
-28 -142 0
-4 -142 0
-4 -28 0
-45 -135 0
-45 -112 0
-45 -210 0
-45 -156 0
-112 -135 0
-135 -210 0
-135 -156 0
-112 -210 0
-112 -156 0
-156 -210 0
-213 -214 0
-81 -213 0
-11 -213 0
-164 -213 0
-81 -214 0
-11 -214 0
-164 -214 0
-11 -81 0
-81 -164 0
-11 -164 0
-54 -170 0
-54 -174 0
-54 -216 0
-54 -125 0
-170 -174 0
-170 -216 0
-125 -170 0
-174 -216 0
-125 -174 0
-125 -216 0
-117 -217 0
-117 -185 0
-117 -218 0
-117 -191 0
-185 -217 0
-217 -218 0
-191 -217 0
-185 -218 0
-185 -191 0
-191 -218 0
-45 -209 0
-209 -213 0
-54 -209 0
-117 -209 0
-45 -213 0
-45 -54 0
-45 -117 0
-54 -213 0
-117 -213 0
-54 -117 0
-130 -135 0
-130 -214 0
-130 -170 0
-130 -217 0
-135 -214 0
-135 -170 0
-135 -217 0
-170 -214 0
-214 -217 0
-170 -217 0
-112 -142 0
-81 -142 0
-142 -174 0
-142 -185 0
-81 -112 0
-112 -174 0
-112 -185 0
-81 -174 0
-81 -185 0
-174 -185 0
-28 -210 0
-11 -28 0
-28 -216 0
-28 -218 0
-11 -210 0
-210 -216 0
-210 -218 0
-11 -216 0
-11 -218 0
-216 -218 0
-4 -156 0
-4 -164 0
-4 -125 0
-4 -191 0
-156 -164 0
-125 -156 0
-156 -191 0
-125 -164 0
-164 -191 0
-125 -191 0
-80 -89 0
-89 -175 0
-89 -105 0
-68 -89 0
-80 -175 0
-80 -105 0
-68 -80 0
-105 -175 0
-68 -175 0
-68 -105 0
-48 -65 0
-48 -232 0
-47 -48 0
-48 -186 0
-65 -232 0
-47 -65 0
-65 -186 0
-47 -232 0
-186 -232 0
-47 -186 0
-188 -192 0
-133 -192 0
-192 -194 0
-161 -192 0
-133 -188 0
-188 -194 0
-161 -188 0
-133 -194 0
-133 -161 0
-161 -194 0
-107 -110 0
-110 -160 0
-110 -219 0
-5 -110 0
-107 -160 0
-107 -219 0
-5 -107 0
-160 -219 0
-5 -160 0
-5 -219 0
-51 -58 0
-58 -172 0
-41 -58 0
-58 -221 0
-51 -172 0
-41 -51 0
-51 -221 0
-41 -172 0
-172 -221 0
-41 -221 0
-48 -89 0
-89 -192 0
-89 -110 0
-58 -89 0
-48 -192 0
-48 -110 0
-48 -58 0
-110 -192 0
-58 -192 0
-58 -110 0
-65 -80 0
-80 -188 0
-80 -107 0
-51 -80 0
-65 -188 0
-65 -107 0
-51 -65 0
-107 -188 0
-51 -188 0
-51 -107 0
-175 -232 0
-133 -175 0
-160 -175 0
-172 -175 0
-133 -232 0
-160 -232 0
-172 -232 0
-133 -160 0
-133 -172 0
-160 -172 0
-47 -105 0
-105 -194 0
-105 -219 0
-41 -105 0
-47 -194 0
-47 -219 0
-41 -47 0
-194 -219 0
-41 -194 0
-41 -219 0
-68 -186 0
-68 -161 0
-5 -68 0
-68 -221 0
-161 -186 0
-5 -186 0
-186 -221 0
-5 -161 0
-161 -221 0
-5 -221 0
-100 -128 0
-128 -177 0
-128 -223 0
-122 -128 0
-128 -224 0
-100 -177 0
-100 -223 0
-100 -122 0
-100 -224 0
-177 -223 0
-122 -177 0
-177 -224 0
-122 -223 0
-223 -224 0
-122 -224 0
-44 -71 0
-38 -71 0
-71 -143 0
-37 -71 0
-71 -225 0
-38 -44 0
-44 -143 0
-37 -44 0
-44 -225 0
-38 -143 0
-37 -38 0
-38 -225 0
-37 -143 0
-143 -225 0
-37 -225 0
-30 -226 0
-226 -227 0
-119 -226 0
-22 -226 0
-18 -226 0
-30 -227 0
-30 -119 0
-22 -30 0
-18 -30 0
-119 -227 0
-22 -227 0
-18 -227 0
-22 -119 0
-18 -119 0
-18 -22 0
-16 -228 0
-16 -229 0
-16 -230 0
-14 -16 0
-8 -16 0
-228 -229 0
-228 -230 0
-14 -228 0
-8 -228 0
-229 -230 0
-14 -229 0
-8 -229 0
-14 -230 0
-8 -230 0
-8 -14 0
-69 -176 0
-176 -231 0
-25 -176 0
-67 -176 0
-49 -176 0
-69 -231 0
-25 -69 0
-67 -69 0
-49 -69 0
-25 -231 0
-67 -231 0
-49 -231 0
-25 -67 0
-25 -49 0
-49 -67 0
-144 -233 0
-233 -234 0
-154 -233 0
-187 -233 0
-193 -233 0
-144 -234 0
-144 -154 0
-144 -187 0
-144 -193 0
-154 -234 0
-187 -234 0
-193 -234 0
-154 -187 0
-154 -193 0
-187 -193 0
-71 -128 0
-128 -226 0
-16 -128 0
-128 -176 0
-128 -233 0
-71 -226 0
-16 -71 0
-71 -176 0
-71 -233 0
-16 -226 0
-176 -226 0
-226 -233 0
-16 -176 0
-16 -233 0
-176 -233 0
-44 -100 0
-30 -100 0
-100 -228 0
-69 -100 0
-100 -144 0
-30 -44 0
-44 -228 0
-44 -69 0
-44 -144 0
-30 -228 0
-30 -69 0
-30 -144 0
-69 -228 0
-144 -228 0
-69 -144 0
-38 -177 0
-177 -227 0
-177 -229 0
-177 -231 0
-177 -234 0
-38 -227 0
-38 -229 0
-38 -231 0
-38 -234 0
-227 -229 0
-227 -231 0
-227 -234 0
-229 -231 0
-229 -234 0
-231 -234 0
-143 -223 0
-119 -223 0
-223 -230 0
-25 -223 0
-154 -223 0
-119 -143 0
-143 -230 0
-25 -143 0
-143 -154 0
-119 -230 0
-25 -119 0
-119 -154 0
-25 -230 0
-154 -230 0
-25 -154 0
-37 -122 0
-22 -122 0
-14 -122 0
-67 -122 0
-122 -187 0
-22 -37 0
-14 -37 0
-37 -67 0
-37 -187 0
-14 -22 0
-22 -67 0
-22 -187 0
-14 -67 0
-14 -187 0
-67 -187 0
-224 -225 0
-18 -224 0
-8 -224 0
-49 -224 0
-193 -224 0
-18 -225 0
-8 -225 0
-49 -225 0
-193 -225 0
-8 -18 0
-18 -49 0
-18 -193 0
-8 -49 0
-8 -193 0
-49 -193 0
-109 -235 0
-146 -235 0
-109 -146 0
-10 -126 0
-126 -167 0
-10 -167 0
-178 -236 0
-178 -237 0
-236 -237 0
-126 -235 0
-178 -235 0
-126 -178 0
-10 -109 0
-109 -236 0
-10 -236 0
-146 -167 0
-146 -237 0
-167 -237 0
-113 -211 0
-113 -157 0
-113 -155 0
-113 -121 0
-157 -211 0
-155 -211 0
-121 -211 0
-155 -157 0
-121 -157 0
-121 -155 0
-238 -239 0
-64 -238 0
-148 -238 0
-189 -238 0
-64 -239 0
-148 -239 0
-189 -239 0
-64 -148 0
-64 -189 0
-148 -189 0
-53 -171 0
-43 -53 0
-53 -124 0
-34 -53 0
-43 -171 0
-124 -171 0
-34 -171 0
-43 -124 0
-34 -43 0
-34 -124 0
-197 -240 0
-29 -240 0
-20 -240 0
-78 -240 0
-29 -197 0
-20 -197 0
-78 -197 0
-20 -29 0
-29 -78 0
-20 -78 0
-73 -85 0
-85 -241 0
-85 -140 0
-85 -199 0
-73 -241 0
-73 -140 0
-73 -199 0
-140 -241 0
-199 -241 0
-140 -199 0
-113 -238 0
-53 -113 0
-113 -240 0
-85 -113 0
-53 -238 0
-238 -240 0
-85 -238 0
-53 -240 0
-53 -85 0
-85 -240 0
-211 -239 0
-171 -211 0
-197 -211 0
-73 -211 0
-171 -239 0
-197 -239 0
-73 -239 0
-171 -197 0
-73 -171 0
-73 -197 0
-64 -157 0
-43 -157 0
-29 -157 0
-157 -241 0
-43 -64 0
-29 -64 0
-64 -241 0
-29 -43 0
-43 -241 0
-29 -241 0
-148 -155 0
-124 -155 0
-20 -155 0
-140 -155 0
-124 -148 0
-20 -148 0
-140 -148 0
-20 -124 0
-124 -140 0
-20 -140 0
-121 -189 0
-34 -121 0
-78 -121 0
-121 -199 0
-34 -189 0
-78 -189 0
-189 -199 0
-34 -78 0
-34 -199 0
-78 -199 0
-242 -258 0
-94 -258 0
-243 -258 0
-87 -258 0
-180 -258 0
-244 -258 0
-77 -258 0
-94 -242 0
-242 -243 0
-87 -242 0
-180 -242 0
-242 -244 0
-77 -242 0
-94 -243 0
-87 -94 0
-94 -180 0
-94 -244 0
-77 -94 0
-87 -243 0
-180 -243 0
-243 -244 0
-77 -243 0
-87 -180 0
-87 -244 0
-77 -87 0
-180 -244 0
-77 -180 0
-77 -244 0
-245 -260 0
-62 -260 0
-60 -260 0
-132 -260 0
-90 -260 0
-138 -260 0
-111 -260 0
-62 -245 0
-60 -245 0
-132 -245 0
-90 -245 0
-138 -245 0
-111 -245 0
-60 -62 0
-62 -132 0
-62 -90 0
-62 -138 0
-62 -111 0
-60 -132 0
-60 -90 0
-60 -138 0
-60 -111 0
-90 -132 0
-132 -138 0
-111 -132 0
-90 -138 0
-90 -111 0
-111 -138 0
-106 -159 0
-106 -220 0
-106 -246 0
-106 -163 0
-6 -106 0
-106 -247 0
-57 -106 0
-159 -220 0
-159 -246 0
-159 -163 0
-6 -159 0
-159 -247 0
-57 -159 0
-220 -246 0
-163 -220 0
-6 -220 0
-220 -247 0
-57 -220 0
-163 -246 0
-6 -246 0
-246 -247 0
-57 -246 0
-6 -163 0
-163 -247 0
-57 -163 0
-6 -247 0
-6 -57 0
-57 -247 0
-50 -173 0
-40 -50 0
-50 -147 0
-36 -50 0
-50 -222 0
-50 -248 0
-33 -50 0
-40 -173 0
-147 -173 0
-36 -173 0
-173 -222 0
-173 -248 0
-33 -173 0
-40 -147 0
-36 -40 0
-40 -222 0
-40 -248 0
-33 -40 0
-36 -147 0
-147 -222 0
-147 -248 0
-33 -147 0
-36 -222 0
-36 -248 0
-33 -36 0
-222 -248 0
-33 -222 0
-33 -248 0
-249 -250 0
-26 -249 0
-249 -251 0
-52 -249 0
-127 -249 0
-42 -249 0
-99 -249 0
-26 -250 0
-250 -251 0
-52 -250 0
-127 -250 0
-42 -250 0
-99 -250 0
-26 -251 0
-26 -52 0
-26 -127 0
-26 -42 0
-26 -99 0
-52 -251 0
-127 -251 0
-42 -251 0
-99 -251 0
-52 -127 0
-42 -52 0
-52 -99 0
-42 -127 0
-99 -127 0
-42 -99 0
-123 -145 0
-145 -252 0
-131 -145 0
-13 -145 0
-141 -145 0
-27 -145 0
-3 -145 0
-123 -252 0
-123 -131 0
-13 -123 0
-123 -141 0
-27 -123 0
-3 -123 0
-131 -252 0
-13 -252 0
-141 -252 0
-27 -252 0
-3 -252 0
-13 -131 0
-131 -141 0
-27 -131 0
-3 -131 0
-13 -141 0
-13 -27 0
-3 -13 0
-27 -141 0
-3 -141 0
-3 -27 0
-168 -169 0
-168 -253 0
-136 -168 0
-137 -168 0
-114 -168 0
-168 -212 0
-158 -168 0
-169 -253 0
-136 -169 0
-137 -169 0
-114 -169 0
-169 -212 0
-158 -169 0
-136 -253 0
-137 -253 0
-114 -253 0
-212 -253 0
-158 -253 0
-136 -137 0
-114 -136 0
-136 -212 0
-136 -158 0
-114 -137 0
-137 -212 0
-137 -158 0
-114 -212 0
-114 -158 0
-158 -212 0
-254 -255 0
-149 -254 0
-215 -254 0
-190 -254 0
-82 -254 0
-12 -254 0
-165 -254 0
-149 -255 0
-215 -255 0
-190 -255 0
-82 -255 0
-12 -255 0
-165 -255 0
-149 -215 0
-149 -190 0
-82 -149 0
-12 -149 0
-149 -165 0
-190 -215 0
-82 -215 0
-12 -215 0
-165 -215 0
-82 -190 0
-12 -190 0
-165 -190 0
-12 -82 0
-82 -165 0
-12 -165 0
-258 -260 0
-106 -258 0
-50 -258 0
-249 -258 0
-145 -258 0
-168 -258 0
-254 -258 0
-106 -260 0
-50 -260 0
-249 -260 0
-145 -260 0
-168 -260 0
-254 -260 0
-50 -106 0
-106 -249 0
-106 -145 0
-106 -168 0
-106 -254 0
-50 -249 0
-50 -145 0
-50 -168 0
-50 -254 0
-145 -249 0
-168 -249 0
-249 -254 0
-145 -168 0
-145 -254 0
-168 -254 0
-242 -245 0
-159 -242 0
-173 -242 0
-242 -250 0
-123 -242 0
-169 -242 0
-242 -255 0
-159 -245 0
-173 -245 0
-245 -250 0
-123 -245 0
-169 -245 0
-245 -255 0
-159 -173 0
-159 -250 0
-123 -159 0
-159 -169 0
-159 -255 0
-173 -250 0
-123 -173 0
-169 -173 0
-173 -255 0
-123 -250 0
-169 -250 0
-250 -255 0
-123 -169 0
-123 -255 0
-169 -255 0
-62 -94 0
-94 -220 0
-40 -94 0
-26 -94 0
-94 -252 0
-94 -253 0
-94 -149 0
-62 -220 0
-40 -62 0
-26 -62 0
-62 -252 0
-62 -253 0
-62 -149 0
-40 -220 0
-26 -220 0
-220 -252 0
-220 -253 0
-149 -220 0
-26 -40 0
-40 -252 0
-40 -253 0
-40 -149 0
-26 -252 0
-26 -253 0
-26 -149 0
-252 -253 0
-149 -252 0
-149 -253 0
-60 -243 0
-243 -246 0
-147 -243 0
-243 -251 0
-131 -243 0
-136 -243 0
-215 -243 0
-60 -246 0
-60 -147 0
-60 -251 0
-60 -131 0
-60 -136 0
-60 -215 0
-147 -246 0
-246 -251 0
-131 -246 0
-136 -246 0
-215 -246 0
-147 -251 0
-131 -147 0
-136 -147 0
-147 -215 0
-131 -251 0
-136 -251 0
-215 -251 0
-131 -136 0
-131 -215 0
-136 -215 0
-87 -132 0
-87 -163 0
-36 -87 0
-52 -87 0
-13 -87 0
-87 -137 0
-87 -190 0
-132 -163 0
-36 -132 0
-52 -132 0
-13 -132 0
-132 -137 0
-132 -190 0
-36 -163 0
-52 -163 0
-13 -163 0
-137 -163 0
-163 -190 0
-36 -52 0
-13 -36 0
-36 -137 0
-36 -190 0
-13 -52 0
-52 -137 0
-52 -190 0
-13 -137 0
-13 -190 0
-137 -190 0
-90 -180 0
-6 -180 0
-180 -222 0
-127 -180 0
-141 -180 0
-114 -180 0
-82 -180 0
-6 -90 0
-90 -222 0
-90 -127 0
-90 -141 0
-90 -114 0
-82 -90 0
-6 -222 0
-6 -127 0
-6 -141 0
-6 -114 0
-6 -82 0
-127 -222 0
-141 -222 0
-114 -222 0
-82 -222 0
-127 -141 0
-114 -127 0
-82 -127 0
-114 -141 0
-82 -141 0
-82 -114 0
-138 -244 0
-244 -247 0
-244 -248 0
-42 -244 0
-27 -244 0
-212 -244 0
-12 -244 0
-138 -247 0
-138 -248 0
-42 -138 0
-27 -138 0
-138 -212 0
-12 -138 0
-247 -248 0
-42 -247 0
-27 -247 0
-212 -247 0
-12 -247 0
-42 -248 0
-27 -248 0
-212 -248 0
-12 -248 0
-27 -42 0
-42 -212 0
-12 -42 0
-27 -212 0
-12 -27 0
-12 -212 0
-77 -111 0
-57 -77 0
-33 -77 0
-77 -99 0
-3 -77 0
-77 -158 0
-77 -165 0
-57 -111 0
-33 -111 0
-99 -111 0
-3 -111 0
-111 -158 0
-111 -165 0
-33 -57 0
-57 -99 0
-3 -57 0
-57 -158 0
-57 -165 0
-33 -99 0
-3 -33 0
-33 -158 0
-33 -165 0
-3 -99 0
-99 -158 0
-99 -165 0
-3 -158 0
-3 -165 0
-158 -165 0
-31 -118 0
-19 -31 0
-31 -97 0
-31 -66 0
-19 -118 0
-97 -118 0
-66 -118 0
-19 -97 0
-19 -66 0
-66 -97 0
-59 -88 0
-59 -104 0
-59 -256 0
-32 -59 0
-88 -104 0
-88 -256 0
-32 -88 0
-104 -256 0
-32 -104 0
-32 -256 0
-24 -70 0
-46 -70 0
-70 -129 0
-17 -70 0
-24 -46 0
-24 -129 0
-17 -24 0
-46 -129 0
-17 -46 0
-17 -129 0
-162 -257 0
-95 -162 0
-162 -259 0
-93 -162 0
-95 -257 0
-257 -259 0
-93 -257 0
-95 -259 0
-93 -95 0
-93 -259 0
-86 -179 0
-76 -179 0
-179 -261 0
-61 -179 0
-76 -86 0
-86 -261 0
-61 -86 0
-76 -261 0
-61 -76 0
-61 -261 0
-31 -59 0
-31 -70 0
-31 -162 0
-31 -179 0
-59 -70 0
-59 -162 0
-59 -179 0
-70 -162 0
-70 -179 0
-162 -179 0
-88 -118 0
-24 -118 0
-118 -257 0
-86 -118 0
-24 -88 0
-88 -257 0
-86 -88 0
-24 -257 0
-24 -86 0
-86 -257 0
-19 -104 0
-19 -46 0
-19 -95 0
-19 -76 0
-46 -104 0
-95 -104 0
-76 -104 0
-46 -95 0
-46 -76 0
-76 -95 0
-97 -256 0
-97 -129 0
-97 -259 0
-97 -261 0
-129 -256 0
-256 -259 0
-256 -261 0
-129 -259 0
-129 -261 0
-259 -261 0
-32 -66 0
-17 -66 0
-66 -93 0
-61 -66 0
-17 -32 0
-32 -93 0
-32 -61 0
-17 -93 0
-17 -61 0
-61 -93 0
-102 -115 0
-115 -205 0
-101 -115 0
-102 -205 0
-101 -102 0
-101 -205 0
-74 -152 0
-74 -182 0
-74 -151 0
-152 -182 0
-151 -152 0
-151 -182 0
-83 -166 0
-2 -83 0
-56 -83 0
-2 -166 0
-56 -166 0
-2 -56 0
-1 -120 0
-1 -23 0
-1 -63 0
-23 -120 0
-63 -120 0
-23 -63 0
-74 -115 0
-83 -115 0
-1 -115 0
-74 -83 0
-1 -74 0
-1 -83 0
-102 -152 0
-102 -166 0
-102 -120 0
-152 -166 0
-120 -152 0
-120 -166 0
-182 -205 0
-2 -205 0
-23 -205 0
-2 -182 0
-23 -182 0
-2 -23 0
-101 -151 0
-56 -101 0
-63 -101 0
-56 -151 0
-63 -151 0
-56 -63 0
